solution status: optimal solution found
objective value:                            57328.406
y#1                                                 1 	(obj:5700)
y#2                                                 1 	(obj:5700)
y#3                                                 1 	(obj:5700)
y#4                                                 1 	(obj:5700)
y#5                                                 1 	(obj:5700)
y#6                                                 1 	(obj:5700)
y#7                                                 1 	(obj:5700)
y#8                                                 1 	(obj:5700)
y#9                                                 1 	(obj:5700)
y#10                                                1 	(obj:5700)
x#1#5                                1.00000000000001 	(obj:6.749)
x#2#4                                               1 	(obj:7.752)
x#3#10                               0.99999999999999 	(obj:10.2)
x#4#10                                              1 	(obj:5.576)
x#5#7                                               1 	(obj:6.375)
x#6#7                                               1 	(obj:2.941)
x#7#6                                               1 	(obj:5.321)
x#8#6                                               1 	(obj:3.179)
x#9#5                                1.00000000000001 	(obj:6.494)
x#10#4                                              1 	(obj:5.491)
x#11#3                                              1 	(obj:6.205)
x#12#9                                              1 	(obj:12.053)
x#13#9                                              1 	(obj:4.828)
x#14#10                             0.999999999999999 	(obj:8.84)
x#15#2                                              1 	(obj:2.669)
x#16#2                                              1 	(obj:1.904)
x#17#5                               1.00000000000001 	(obj:7.548)
x#18#3                               1.00000000000001 	(obj:3.961)
x#19#4                                              1 	(obj:1.19)
x#20#4                                              1 	(obj:1.887)
x#21#3                                              1 	(obj:3.604)
x#22#9                                              1 	(obj:6.596)
x#23#9                                              1 	(obj:5.576)
x#24#9                                              1 	(obj:9.877)
x#25#8                                              1 	(obj:9.333)
x#26#8                                              1 	(obj:6.052)
x#27#8                                              1 	(obj:2.057)
x#28#7                                              1 	(obj:13.379)
x#29#2                                              1 	(obj:3.349)
x#30#2                               1.00000000000002 	(obj:5.253)
x#31#4                                              1 	(obj:3.128)
x#32#3                                              1 	(obj:6.732)
x#33#3                                              1 	(obj:3.162)
x#34#6                                              1 	(obj:5.559)
x#35#5                                              1 	(obj:5.338)
x#36#6                                              1 	(obj:8.857)
x#37#10                                             1 	(obj:6.137)
x#38#8                                              1 	(obj:3.944)
x#39#9                                              1 	(obj:4.131)
x#40#5                                              1 	(obj:3.927)
x#41#5                                              1 	(obj:1.598)
x#42#5                               0.99999999999999 	(obj:8.313)
x#43#2                               0.99999999999999 	(obj:2.465)
x#44#2                               0.99999999999999 	(obj:3.536)
x#45#6                              0.999999999999999 	(obj:11.424)
x#46#1                                              1 	(obj:2.159)
x#47#1                                              1 	(obj:2.55)
x#48#1                               1.00000000000001 	(obj:6.052)
x#49#1                                              1 	(obj:5.304)
x#50#1                                              1 	(obj:4.59)
x#51#10                             0.999999999999999 	(obj:13.311)
x#52#10                                             1 	(obj:9.928)
x#53#10                                             1 	(obj:10.285)
x#54#1                               0.99999999999999 	(obj:2.261)
x#55#7                                              1 	(obj:12.869)
x#56#7                                              1 	(obj:4.607)
